120
150
87
30
47
32
25
32
23
38
39
22
81
85
51
22
69
64
57
26
67
61
33
69
97
56
61
49
31
69
20
30
71
66
20
35
69
23
75
27
48
33
35
90
23
33
49
94
25
56
35
72
30
88
68
23
92
41
55
61
25
57
27
32
57
20
29
64
71
79
35
57
92
32
57
61
94
56
52
30
88
35
61
38
86
49
59
81
69
72
78
67
100
33
95
83
77
98
92
55
84
77
92
95
41
26
49
39
71
52
57
66
33
84
57
78
66
72
22
67
55
83
